c *********************************
c * Circuit generated by BenCGen
c *
c * Parity_331
c *
c * Ports with 1 gate(s): 1
c * Ports with 2 gate(s): 331
c * Total gates: 332
c *********************************
p cnf 663 1325
1 334 0
-1 -334 0
1 -333 0
334 -333 0
-1 -334 333 0
1 2 -335 0
-1 2 335 0
1 -2 335 0
-1 -2 -335 0
3 4 -336 0
-3 4 336 0
3 -4 336 0
-3 -4 -336 0
5 6 -337 0
-5 6 337 0
5 -6 337 0
-5 -6 -337 0
7 8 -338 0
-7 8 338 0
7 -8 338 0
-7 -8 -338 0
9 10 -339 0
-9 10 339 0
9 -10 339 0
-9 -10 -339 0
11 12 -340 0
-11 12 340 0
11 -12 340 0
-11 -12 -340 0
13 14 -341 0
-13 14 341 0
13 -14 341 0
-13 -14 -341 0
15 16 -342 0
-15 16 342 0
15 -16 342 0
-15 -16 -342 0
17 18 -343 0
-17 18 343 0
17 -18 343 0
-17 -18 -343 0
19 20 -344 0
-19 20 344 0
19 -20 344 0
-19 -20 -344 0
21 22 -345 0
-21 22 345 0
21 -22 345 0
-21 -22 -345 0
23 24 -346 0
-23 24 346 0
23 -24 346 0
-23 -24 -346 0
25 26 -347 0
-25 26 347 0
25 -26 347 0
-25 -26 -347 0
27 28 -348 0
-27 28 348 0
27 -28 348 0
-27 -28 -348 0
29 30 -349 0
-29 30 349 0
29 -30 349 0
-29 -30 -349 0
31 32 -350 0
-31 32 350 0
31 -32 350 0
-31 -32 -350 0
33 34 -351 0
-33 34 351 0
33 -34 351 0
-33 -34 -351 0
35 36 -352 0
-35 36 352 0
35 -36 352 0
-35 -36 -352 0
37 38 -353 0
-37 38 353 0
37 -38 353 0
-37 -38 -353 0
39 40 -354 0
-39 40 354 0
39 -40 354 0
-39 -40 -354 0
41 42 -355 0
-41 42 355 0
41 -42 355 0
-41 -42 -355 0
43 44 -356 0
-43 44 356 0
43 -44 356 0
-43 -44 -356 0
45 46 -357 0
-45 46 357 0
45 -46 357 0
-45 -46 -357 0
47 48 -358 0
-47 48 358 0
47 -48 358 0
-47 -48 -358 0
49 50 -359 0
-49 50 359 0
49 -50 359 0
-49 -50 -359 0
51 52 -360 0
-51 52 360 0
51 -52 360 0
-51 -52 -360 0
53 54 -361 0
-53 54 361 0
53 -54 361 0
-53 -54 -361 0
55 56 -362 0
-55 56 362 0
55 -56 362 0
-55 -56 -362 0
57 58 -363 0
-57 58 363 0
57 -58 363 0
-57 -58 -363 0
59 60 -364 0
-59 60 364 0
59 -60 364 0
-59 -60 -364 0
61 62 -365 0
-61 62 365 0
61 -62 365 0
-61 -62 -365 0
63 64 -366 0
-63 64 366 0
63 -64 366 0
-63 -64 -366 0
65 66 -367 0
-65 66 367 0
65 -66 367 0
-65 -66 -367 0
67 68 -368 0
-67 68 368 0
67 -68 368 0
-67 -68 -368 0
69 70 -369 0
-69 70 369 0
69 -70 369 0
-69 -70 -369 0
71 72 -370 0
-71 72 370 0
71 -72 370 0
-71 -72 -370 0
73 74 -371 0
-73 74 371 0
73 -74 371 0
-73 -74 -371 0
75 76 -372 0
-75 76 372 0
75 -76 372 0
-75 -76 -372 0
77 78 -373 0
-77 78 373 0
77 -78 373 0
-77 -78 -373 0
79 80 -374 0
-79 80 374 0
79 -80 374 0
-79 -80 -374 0
81 82 -375 0
-81 82 375 0
81 -82 375 0
-81 -82 -375 0
83 84 -376 0
-83 84 376 0
83 -84 376 0
-83 -84 -376 0
85 86 -377 0
-85 86 377 0
85 -86 377 0
-85 -86 -377 0
87 88 -378 0
-87 88 378 0
87 -88 378 0
-87 -88 -378 0
89 90 -379 0
-89 90 379 0
89 -90 379 0
-89 -90 -379 0
91 92 -380 0
-91 92 380 0
91 -92 380 0
-91 -92 -380 0
93 94 -381 0
-93 94 381 0
93 -94 381 0
-93 -94 -381 0
95 96 -382 0
-95 96 382 0
95 -96 382 0
-95 -96 -382 0
97 98 -383 0
-97 98 383 0
97 -98 383 0
-97 -98 -383 0
99 100 -384 0
-99 100 384 0
99 -100 384 0
-99 -100 -384 0
101 102 -385 0
-101 102 385 0
101 -102 385 0
-101 -102 -385 0
103 104 -386 0
-103 104 386 0
103 -104 386 0
-103 -104 -386 0
105 106 -387 0
-105 106 387 0
105 -106 387 0
-105 -106 -387 0
107 108 -388 0
-107 108 388 0
107 -108 388 0
-107 -108 -388 0
109 110 -389 0
-109 110 389 0
109 -110 389 0
-109 -110 -389 0
111 112 -390 0
-111 112 390 0
111 -112 390 0
-111 -112 -390 0
113 114 -391 0
-113 114 391 0
113 -114 391 0
-113 -114 -391 0
115 116 -392 0
-115 116 392 0
115 -116 392 0
-115 -116 -392 0
117 118 -393 0
-117 118 393 0
117 -118 393 0
-117 -118 -393 0
119 120 -394 0
-119 120 394 0
119 -120 394 0
-119 -120 -394 0
121 122 -395 0
-121 122 395 0
121 -122 395 0
-121 -122 -395 0
123 124 -396 0
-123 124 396 0
123 -124 396 0
-123 -124 -396 0
125 126 -397 0
-125 126 397 0
125 -126 397 0
-125 -126 -397 0
127 128 -398 0
-127 128 398 0
127 -128 398 0
-127 -128 -398 0
129 130 -399 0
-129 130 399 0
129 -130 399 0
-129 -130 -399 0
131 132 -400 0
-131 132 400 0
131 -132 400 0
-131 -132 -400 0
133 134 -401 0
-133 134 401 0
133 -134 401 0
-133 -134 -401 0
135 136 -402 0
-135 136 402 0
135 -136 402 0
-135 -136 -402 0
137 138 -403 0
-137 138 403 0
137 -138 403 0
-137 -138 -403 0
139 140 -404 0
-139 140 404 0
139 -140 404 0
-139 -140 -404 0
141 142 -405 0
-141 142 405 0
141 -142 405 0
-141 -142 -405 0
143 144 -406 0
-143 144 406 0
143 -144 406 0
-143 -144 -406 0
145 146 -407 0
-145 146 407 0
145 -146 407 0
-145 -146 -407 0
147 148 -408 0
-147 148 408 0
147 -148 408 0
-147 -148 -408 0
149 150 -409 0
-149 150 409 0
149 -150 409 0
-149 -150 -409 0
151 152 -410 0
-151 152 410 0
151 -152 410 0
-151 -152 -410 0
153 154 -411 0
-153 154 411 0
153 -154 411 0
-153 -154 -411 0
155 156 -412 0
-155 156 412 0
155 -156 412 0
-155 -156 -412 0
157 158 -413 0
-157 158 413 0
157 -158 413 0
-157 -158 -413 0
159 160 -414 0
-159 160 414 0
159 -160 414 0
-159 -160 -414 0
161 162 -415 0
-161 162 415 0
161 -162 415 0
-161 -162 -415 0
163 164 -416 0
-163 164 416 0
163 -164 416 0
-163 -164 -416 0
165 166 -417 0
-165 166 417 0
165 -166 417 0
-165 -166 -417 0
167 168 -418 0
-167 168 418 0
167 -168 418 0
-167 -168 -418 0
169 170 -419 0
-169 170 419 0
169 -170 419 0
-169 -170 -419 0
171 172 -420 0
-171 172 420 0
171 -172 420 0
-171 -172 -420 0
173 174 -421 0
-173 174 421 0
173 -174 421 0
-173 -174 -421 0
175 176 -422 0
-175 176 422 0
175 -176 422 0
-175 -176 -422 0
177 178 -423 0
-177 178 423 0
177 -178 423 0
-177 -178 -423 0
179 180 -424 0
-179 180 424 0
179 -180 424 0
-179 -180 -424 0
181 182 -425 0
-181 182 425 0
181 -182 425 0
-181 -182 -425 0
183 184 -426 0
-183 184 426 0
183 -184 426 0
-183 -184 -426 0
185 186 -427 0
-185 186 427 0
185 -186 427 0
-185 -186 -427 0
187 188 -428 0
-187 188 428 0
187 -188 428 0
-187 -188 -428 0
189 190 -429 0
-189 190 429 0
189 -190 429 0
-189 -190 -429 0
191 192 -430 0
-191 192 430 0
191 -192 430 0
-191 -192 -430 0
193 194 -431 0
-193 194 431 0
193 -194 431 0
-193 -194 -431 0
195 196 -432 0
-195 196 432 0
195 -196 432 0
-195 -196 -432 0
197 198 -433 0
-197 198 433 0
197 -198 433 0
-197 -198 -433 0
199 200 -434 0
-199 200 434 0
199 -200 434 0
-199 -200 -434 0
201 202 -435 0
-201 202 435 0
201 -202 435 0
-201 -202 -435 0
203 204 -436 0
-203 204 436 0
203 -204 436 0
-203 -204 -436 0
205 206 -437 0
-205 206 437 0
205 -206 437 0
-205 -206 -437 0
207 208 -438 0
-207 208 438 0
207 -208 438 0
-207 -208 -438 0
209 210 -439 0
-209 210 439 0
209 -210 439 0
-209 -210 -439 0
211 212 -440 0
-211 212 440 0
211 -212 440 0
-211 -212 -440 0
213 214 -441 0
-213 214 441 0
213 -214 441 0
-213 -214 -441 0
215 216 -442 0
-215 216 442 0
215 -216 442 0
-215 -216 -442 0
217 218 -443 0
-217 218 443 0
217 -218 443 0
-217 -218 -443 0
219 220 -444 0
-219 220 444 0
219 -220 444 0
-219 -220 -444 0
221 222 -445 0
-221 222 445 0
221 -222 445 0
-221 -222 -445 0
223 224 -446 0
-223 224 446 0
223 -224 446 0
-223 -224 -446 0
225 226 -447 0
-225 226 447 0
225 -226 447 0
-225 -226 -447 0
227 228 -448 0
-227 228 448 0
227 -228 448 0
-227 -228 -448 0
229 230 -449 0
-229 230 449 0
229 -230 449 0
-229 -230 -449 0
231 232 -450 0
-231 232 450 0
231 -232 450 0
-231 -232 -450 0
233 234 -451 0
-233 234 451 0
233 -234 451 0
-233 -234 -451 0
235 236 -452 0
-235 236 452 0
235 -236 452 0
-235 -236 -452 0
237 238 -453 0
-237 238 453 0
237 -238 453 0
-237 -238 -453 0
239 240 -454 0
-239 240 454 0
239 -240 454 0
-239 -240 -454 0
241 242 -455 0
-241 242 455 0
241 -242 455 0
-241 -242 -455 0
243 244 -456 0
-243 244 456 0
243 -244 456 0
-243 -244 -456 0
245 246 -457 0
-245 246 457 0
245 -246 457 0
-245 -246 -457 0
247 248 -458 0
-247 248 458 0
247 -248 458 0
-247 -248 -458 0
249 250 -459 0
-249 250 459 0
249 -250 459 0
-249 -250 -459 0
251 252 -460 0
-251 252 460 0
251 -252 460 0
-251 -252 -460 0
253 254 -461 0
-253 254 461 0
253 -254 461 0
-253 -254 -461 0
255 256 -462 0
-255 256 462 0
255 -256 462 0
-255 -256 -462 0
257 258 -463 0
-257 258 463 0
257 -258 463 0
-257 -258 -463 0
259 260 -464 0
-259 260 464 0
259 -260 464 0
-259 -260 -464 0
261 262 -465 0
-261 262 465 0
261 -262 465 0
-261 -262 -465 0
263 264 -466 0
-263 264 466 0
263 -264 466 0
-263 -264 -466 0
265 266 -467 0
-265 266 467 0
265 -266 467 0
-265 -266 -467 0
267 268 -468 0
-267 268 468 0
267 -268 468 0
-267 -268 -468 0
269 270 -469 0
-269 270 469 0
269 -270 469 0
-269 -270 -469 0
271 272 -470 0
-271 272 470 0
271 -272 470 0
-271 -272 -470 0
273 274 -471 0
-273 274 471 0
273 -274 471 0
-273 -274 -471 0
275 276 -472 0
-275 276 472 0
275 -276 472 0
-275 -276 -472 0
277 278 -473 0
-277 278 473 0
277 -278 473 0
-277 -278 -473 0
279 280 -474 0
-279 280 474 0
279 -280 474 0
-279 -280 -474 0
281 282 -475 0
-281 282 475 0
281 -282 475 0
-281 -282 -475 0
283 284 -476 0
-283 284 476 0
283 -284 476 0
-283 -284 -476 0
285 286 -477 0
-285 286 477 0
285 -286 477 0
-285 -286 -477 0
287 288 -478 0
-287 288 478 0
287 -288 478 0
-287 -288 -478 0
289 290 -479 0
-289 290 479 0
289 -290 479 0
-289 -290 -479 0
291 292 -480 0
-291 292 480 0
291 -292 480 0
-291 -292 -480 0
293 294 -481 0
-293 294 481 0
293 -294 481 0
-293 -294 -481 0
295 296 -482 0
-295 296 482 0
295 -296 482 0
-295 -296 -482 0
297 298 -483 0
-297 298 483 0
297 -298 483 0
-297 -298 -483 0
299 300 -484 0
-299 300 484 0
299 -300 484 0
-299 -300 -484 0
301 302 -485 0
-301 302 485 0
301 -302 485 0
-301 -302 -485 0
303 304 -486 0
-303 304 486 0
303 -304 486 0
-303 -304 -486 0
305 306 -487 0
-305 306 487 0
305 -306 487 0
-305 -306 -487 0
307 308 -488 0
-307 308 488 0
307 -308 488 0
-307 -308 -488 0
309 310 -489 0
-309 310 489 0
309 -310 489 0
-309 -310 -489 0
311 312 -490 0
-311 312 490 0
311 -312 490 0
-311 -312 -490 0
313 314 -491 0
-313 314 491 0
313 -314 491 0
-313 -314 -491 0
315 316 -492 0
-315 316 492 0
315 -316 492 0
-315 -316 -492 0
317 318 -493 0
-317 318 493 0
317 -318 493 0
-317 -318 -493 0
319 320 -494 0
-319 320 494 0
319 -320 494 0
-319 -320 -494 0
321 322 -495 0
-321 322 495 0
321 -322 495 0
-321 -322 -495 0
323 324 -496 0
-323 324 496 0
323 -324 496 0
-323 -324 -496 0
325 326 -497 0
-325 326 497 0
325 -326 497 0
-325 -326 -497 0
327 328 -498 0
-327 328 498 0
327 -328 498 0
-327 -328 -498 0
329 330 -499 0
-329 330 499 0
329 -330 499 0
-329 -330 -499 0
335 336 -500 0
-335 336 500 0
335 -336 500 0
-335 -336 -500 0
337 338 -501 0
-337 338 501 0
337 -338 501 0
-337 -338 -501 0
339 340 -502 0
-339 340 502 0
339 -340 502 0
-339 -340 -502 0
341 342 -503 0
-341 342 503 0
341 -342 503 0
-341 -342 -503 0
343 344 -504 0
-343 344 504 0
343 -344 504 0
-343 -344 -504 0
345 346 -505 0
-345 346 505 0
345 -346 505 0
-345 -346 -505 0
347 348 -506 0
-347 348 506 0
347 -348 506 0
-347 -348 -506 0
349 350 -507 0
-349 350 507 0
349 -350 507 0
-349 -350 -507 0
351 352 -508 0
-351 352 508 0
351 -352 508 0
-351 -352 -508 0
353 354 -509 0
-353 354 509 0
353 -354 509 0
-353 -354 -509 0
355 356 -510 0
-355 356 510 0
355 -356 510 0
-355 -356 -510 0
357 358 -511 0
-357 358 511 0
357 -358 511 0
-357 -358 -511 0
359 360 -512 0
-359 360 512 0
359 -360 512 0
-359 -360 -512 0
361 362 -513 0
-361 362 513 0
361 -362 513 0
-361 -362 -513 0
363 364 -514 0
-363 364 514 0
363 -364 514 0
-363 -364 -514 0
365 366 -515 0
-365 366 515 0
365 -366 515 0
-365 -366 -515 0
367 368 -516 0
-367 368 516 0
367 -368 516 0
-367 -368 -516 0
369 370 -517 0
-369 370 517 0
369 -370 517 0
-369 -370 -517 0
371 372 -518 0
-371 372 518 0
371 -372 518 0
-371 -372 -518 0
373 374 -519 0
-373 374 519 0
373 -374 519 0
-373 -374 -519 0
375 376 -520 0
-375 376 520 0
375 -376 520 0
-375 -376 -520 0
377 378 -521 0
-377 378 521 0
377 -378 521 0
-377 -378 -521 0
379 380 -522 0
-379 380 522 0
379 -380 522 0
-379 -380 -522 0
381 382 -523 0
-381 382 523 0
381 -382 523 0
-381 -382 -523 0
383 384 -524 0
-383 384 524 0
383 -384 524 0
-383 -384 -524 0
385 386 -525 0
-385 386 525 0
385 -386 525 0
-385 -386 -525 0
387 388 -526 0
-387 388 526 0
387 -388 526 0
-387 -388 -526 0
389 390 -527 0
-389 390 527 0
389 -390 527 0
-389 -390 -527 0
391 392 -528 0
-391 392 528 0
391 -392 528 0
-391 -392 -528 0
393 394 -529 0
-393 394 529 0
393 -394 529 0
-393 -394 -529 0
395 396 -530 0
-395 396 530 0
395 -396 530 0
-395 -396 -530 0
397 398 -531 0
-397 398 531 0
397 -398 531 0
-397 -398 -531 0
399 400 -532 0
-399 400 532 0
399 -400 532 0
-399 -400 -532 0
401 402 -533 0
-401 402 533 0
401 -402 533 0
-401 -402 -533 0
403 404 -534 0
-403 404 534 0
403 -404 534 0
-403 -404 -534 0
405 406 -535 0
-405 406 535 0
405 -406 535 0
-405 -406 -535 0
407 408 -536 0
-407 408 536 0
407 -408 536 0
-407 -408 -536 0
409 410 -537 0
-409 410 537 0
409 -410 537 0
-409 -410 -537 0
411 412 -538 0
-411 412 538 0
411 -412 538 0
-411 -412 -538 0
413 414 -539 0
-413 414 539 0
413 -414 539 0
-413 -414 -539 0
415 416 -540 0
-415 416 540 0
415 -416 540 0
-415 -416 -540 0
417 418 -541 0
-417 418 541 0
417 -418 541 0
-417 -418 -541 0
419 420 -542 0
-419 420 542 0
419 -420 542 0
-419 -420 -542 0
421 422 -543 0
-421 422 543 0
421 -422 543 0
-421 -422 -543 0
423 424 -544 0
-423 424 544 0
423 -424 544 0
-423 -424 -544 0
425 426 -545 0
-425 426 545 0
425 -426 545 0
-425 -426 -545 0
427 428 -546 0
-427 428 546 0
427 -428 546 0
-427 -428 -546 0
429 430 -547 0
-429 430 547 0
429 -430 547 0
-429 -430 -547 0
431 432 -548 0
-431 432 548 0
431 -432 548 0
-431 -432 -548 0
433 434 -549 0
-433 434 549 0
433 -434 549 0
-433 -434 -549 0
435 436 -550 0
-435 436 550 0
435 -436 550 0
-435 -436 -550 0
437 438 -551 0
-437 438 551 0
437 -438 551 0
-437 -438 -551 0
439 440 -552 0
-439 440 552 0
439 -440 552 0
-439 -440 -552 0
441 442 -553 0
-441 442 553 0
441 -442 553 0
-441 -442 -553 0
443 444 -554 0
-443 444 554 0
443 -444 554 0
-443 -444 -554 0
445 446 -555 0
-445 446 555 0
445 -446 555 0
-445 -446 -555 0
447 448 -556 0
-447 448 556 0
447 -448 556 0
-447 -448 -556 0
449 450 -557 0
-449 450 557 0
449 -450 557 0
-449 -450 -557 0
451 452 -558 0
-451 452 558 0
451 -452 558 0
-451 -452 -558 0
453 454 -559 0
-453 454 559 0
453 -454 559 0
-453 -454 -559 0
455 456 -560 0
-455 456 560 0
455 -456 560 0
-455 -456 -560 0
457 458 -561 0
-457 458 561 0
457 -458 561 0
-457 -458 -561 0
459 460 -562 0
-459 460 562 0
459 -460 562 0
-459 -460 -562 0
461 462 -563 0
-461 462 563 0
461 -462 563 0
-461 -462 -563 0
463 464 -564 0
-463 464 564 0
463 -464 564 0
-463 -464 -564 0
465 466 -565 0
-465 466 565 0
465 -466 565 0
-465 -466 -565 0
467 468 -566 0
-467 468 566 0
467 -468 566 0
-467 -468 -566 0
469 470 -567 0
-469 470 567 0
469 -470 567 0
-469 -470 -567 0
471 472 -568 0
-471 472 568 0
471 -472 568 0
-471 -472 -568 0
473 474 -569 0
-473 474 569 0
473 -474 569 0
-473 -474 -569 0
475 476 -570 0
-475 476 570 0
475 -476 570 0
-475 -476 -570 0
477 478 -571 0
-477 478 571 0
477 -478 571 0
-477 -478 -571 0
479 480 -572 0
-479 480 572 0
479 -480 572 0
-479 -480 -572 0
481 482 -573 0
-481 482 573 0
481 -482 573 0
-481 -482 -573 0
483 484 -574 0
-483 484 574 0
483 -484 574 0
-483 -484 -574 0
485 486 -575 0
-485 486 575 0
485 -486 575 0
-485 -486 -575 0
487 488 -576 0
-487 488 576 0
487 -488 576 0
-487 -488 -576 0
489 490 -577 0
-489 490 577 0
489 -490 577 0
-489 -490 -577 0
491 492 -578 0
-491 492 578 0
491 -492 578 0
-491 -492 -578 0
493 494 -579 0
-493 494 579 0
493 -494 579 0
-493 -494 -579 0
495 496 -580 0
-495 496 580 0
495 -496 580 0
-495 -496 -580 0
497 498 -581 0
-497 498 581 0
497 -498 581 0
-497 -498 -581 0
499 331 -582 0
-499 331 582 0
499 -331 582 0
-499 -331 -582 0
500 501 -583 0
-500 501 583 0
500 -501 583 0
-500 -501 -583 0
502 503 -584 0
-502 503 584 0
502 -503 584 0
-502 -503 -584 0
504 505 -585 0
-504 505 585 0
504 -505 585 0
-504 -505 -585 0
506 507 -586 0
-506 507 586 0
506 -507 586 0
-506 -507 -586 0
508 509 -587 0
-508 509 587 0
508 -509 587 0
-508 -509 -587 0
510 511 -588 0
-510 511 588 0
510 -511 588 0
-510 -511 -588 0
512 513 -589 0
-512 513 589 0
512 -513 589 0
-512 -513 -589 0
514 515 -590 0
-514 515 590 0
514 -515 590 0
-514 -515 -590 0
516 517 -591 0
-516 517 591 0
516 -517 591 0
-516 -517 -591 0
518 519 -592 0
-518 519 592 0
518 -519 592 0
-518 -519 -592 0
520 521 -593 0
-520 521 593 0
520 -521 593 0
-520 -521 -593 0
522 523 -594 0
-522 523 594 0
522 -523 594 0
-522 -523 -594 0
524 525 -595 0
-524 525 595 0
524 -525 595 0
-524 -525 -595 0
526 527 -596 0
-526 527 596 0
526 -527 596 0
-526 -527 -596 0
528 529 -597 0
-528 529 597 0
528 -529 597 0
-528 -529 -597 0
530 531 -598 0
-530 531 598 0
530 -531 598 0
-530 -531 -598 0
532 533 -599 0
-532 533 599 0
532 -533 599 0
-532 -533 -599 0
534 535 -600 0
-534 535 600 0
534 -535 600 0
-534 -535 -600 0
536 537 -601 0
-536 537 601 0
536 -537 601 0
-536 -537 -601 0
538 539 -602 0
-538 539 602 0
538 -539 602 0
-538 -539 -602 0
540 541 -603 0
-540 541 603 0
540 -541 603 0
-540 -541 -603 0
542 543 -604 0
-542 543 604 0
542 -543 604 0
-542 -543 -604 0
544 545 -605 0
-544 545 605 0
544 -545 605 0
-544 -545 -605 0
546 547 -606 0
-546 547 606 0
546 -547 606 0
-546 -547 -606 0
548 549 -607 0
-548 549 607 0
548 -549 607 0
-548 -549 -607 0
550 551 -608 0
-550 551 608 0
550 -551 608 0
-550 -551 -608 0
552 553 -609 0
-552 553 609 0
552 -553 609 0
-552 -553 -609 0
554 555 -610 0
-554 555 610 0
554 -555 610 0
-554 -555 -610 0
556 557 -611 0
-556 557 611 0
556 -557 611 0
-556 -557 -611 0
558 559 -612 0
-558 559 612 0
558 -559 612 0
-558 -559 -612 0
560 561 -613 0
-560 561 613 0
560 -561 613 0
-560 -561 -613 0
562 563 -614 0
-562 563 614 0
562 -563 614 0
-562 -563 -614 0
564 565 -615 0
-564 565 615 0
564 -565 615 0
-564 -565 -615 0
566 567 -616 0
-566 567 616 0
566 -567 616 0
-566 -567 -616 0
568 569 -617 0
-568 569 617 0
568 -569 617 0
-568 -569 -617 0
570 571 -618 0
-570 571 618 0
570 -571 618 0
-570 -571 -618 0
572 573 -619 0
-572 573 619 0
572 -573 619 0
-572 -573 -619 0
574 575 -620 0
-574 575 620 0
574 -575 620 0
-574 -575 -620 0
576 577 -621 0
-576 577 621 0
576 -577 621 0
-576 -577 -621 0
578 579 -622 0
-578 579 622 0
578 -579 622 0
-578 -579 -622 0
580 581 -623 0
-580 581 623 0
580 -581 623 0
-580 -581 -623 0
583 584 -624 0
-583 584 624 0
583 -584 624 0
-583 -584 -624 0
585 586 -625 0
-585 586 625 0
585 -586 625 0
-585 -586 -625 0
587 588 -626 0
-587 588 626 0
587 -588 626 0
-587 -588 -626 0
589 590 -627 0
-589 590 627 0
589 -590 627 0
-589 -590 -627 0
591 592 -628 0
-591 592 628 0
591 -592 628 0
-591 -592 -628 0
593 594 -629 0
-593 594 629 0
593 -594 629 0
-593 -594 -629 0
595 596 -630 0
-595 596 630 0
595 -596 630 0
-595 -596 -630 0
597 598 -631 0
-597 598 631 0
597 -598 631 0
-597 -598 -631 0
599 600 -632 0
-599 600 632 0
599 -600 632 0
-599 -600 -632 0
601 602 -633 0
-601 602 633 0
601 -602 633 0
-601 -602 -633 0
603 604 -634 0
-603 604 634 0
603 -604 634 0
-603 -604 -634 0
605 606 -635 0
-605 606 635 0
605 -606 635 0
-605 -606 -635 0
607 608 -636 0
-607 608 636 0
607 -608 636 0
-607 -608 -636 0
609 610 -637 0
-609 610 637 0
609 -610 637 0
-609 -610 -637 0
611 612 -638 0
-611 612 638 0
611 -612 638 0
-611 -612 -638 0
613 614 -639 0
-613 614 639 0
613 -614 639 0
-613 -614 -639 0
615 616 -640 0
-615 616 640 0
615 -616 640 0
-615 -616 -640 0
617 618 -641 0
-617 618 641 0
617 -618 641 0
-617 -618 -641 0
619 620 -642 0
-619 620 642 0
619 -620 642 0
-619 -620 -642 0
621 622 -643 0
-621 622 643 0
621 -622 643 0
-621 -622 -643 0
623 582 -644 0
-623 582 644 0
623 -582 644 0
-623 -582 -644 0
624 625 -645 0
-624 625 645 0
624 -625 645 0
-624 -625 -645 0
626 627 -646 0
-626 627 646 0
626 -627 646 0
-626 -627 -646 0
628 629 -647 0
-628 629 647 0
628 -629 647 0
-628 -629 -647 0
630 631 -648 0
-630 631 648 0
630 -631 648 0
-630 -631 -648 0
632 633 -649 0
-632 633 649 0
632 -633 649 0
-632 -633 -649 0
634 635 -650 0
-634 635 650 0
634 -635 650 0
-634 -635 -650 0
636 637 -651 0
-636 637 651 0
636 -637 651 0
-636 -637 -651 0
638 639 -652 0
-638 639 652 0
638 -639 652 0
-638 -639 -652 0
640 641 -653 0
-640 641 653 0
640 -641 653 0
-640 -641 -653 0
642 643 -654 0
-642 643 654 0
642 -643 654 0
-642 -643 -654 0
645 646 -655 0
-645 646 655 0
645 -646 655 0
-645 -646 -655 0
647 648 -656 0
-647 648 656 0
647 -648 656 0
-647 -648 -656 0
649 650 -657 0
-649 650 657 0
649 -650 657 0
-649 -650 -657 0
651 652 -658 0
-651 652 658 0
651 -652 658 0
-651 -652 -658 0
653 654 -659 0
-653 654 659 0
653 -654 659 0
-653 -654 -659 0
655 656 -660 0
-655 656 660 0
655 -656 660 0
-655 -656 -660 0
657 658 -661 0
-657 658 661 0
657 -658 661 0
-657 -658 -661 0
659 644 -662 0
-659 644 662 0
659 -644 662 0
-659 -644 -662 0
660 661 -663 0
-660 661 663 0
660 -661 663 0
-660 -661 -663 0
663 662 -332 0
-663 662 332 0
663 -662 332 0
-663 -662 -332 0
